NAME: ACTUAL_TOURS/amz2048
TYPE: TOUR
COMMENT: RouteID_d93b3255-8636-4c06-986d-3e5dbe16b26d
DIMENSION: 123
TOUR_SECTION
93
45
36
95
30
120
107
56
117
8
97
100
113
79
110
42
89
62
91
90
83
29
112
27
2
88
34
17
61
99
22
1
38
25
14
66
82
35
87
116
104
50
4
3
21
53
9
23
31
32
96
109
114
80
92
78
12
102
40
64
63
26
16
6
85
20
122
19
119
54
55
39
108
59
60
68
48
57
121
86
98
15
101
52
76
74
28
43
84
103
44
106
51
33
70
75
47
13
77
18
94
49
67
118
65
71
72
11
69
115
111
46
10
37
24
41
73
7
123
81
58
5
105
-1
EOF
